p tw 158 171
1 2
2 71
3 14
4 5
5 6
5 9
6 7
7 8
8 13
9 10
10 11
11 12
11 13
12 13
13 15
14 25
15 16
16 17
17 18
18 19
19 20
20 21
21 22
22 23
23 24
23 33
24 26
25 36
26 27
27 28
28 29
29 30
30 31
31 32
32 17
33 34
34 35
35 37
36 47
36 67
37 38
38 39
39 40
39 55
40 41
40 46
41 42
42 43
43 44
44 45
45 52
46 48
47 58
48 49
49 50
50 51
51 52
52 53
53 54
54 38
55 56
56 57
57 59
57 61
58 115
59 60
60 63
61 62
62 63
63 64
64 65
65 66
67 68
68 69
69 70
70 72
71 82
72 73
72 76
73 74
74 75
75 80
76 77
77 78
78 79
78 80
79 80
80 81
81 83
82 93
83 84
84 85
85 86
86 87
87 88
88 89
89 90
90 91
91 92
91 107
92 94
93 104
94 95
95 96
96 97
97 98
98 99
99 100
100 101
101 102
102 103
103 105
104 115
105 106
106 84
107 108
108 109
109 110
110 111
110 145
111 112
112 113
113 114
114 116
115 126
116 117
117 118
118 119
119 120
120 121
120 139
121 122
122 123
123 124
124 125
125 127
126 137
127 128
128 129
129 130
130 131
131 132
132 133
133 134
134 135
135 136
136 138
137 148
138 113
139 140
140 141
141 142
142 143
143 144
144 145
145 146
146 147
147 149
148 3
149 150
150 151
150 153
151 152
152 153
152 35
153 154
154 155
155 156
156 157
157 158
158 4
